-99 000 000 000 -99 -99 000 000 -99 -99 -99 -99 000 000 -99 -99 -99 -99 -99 -99 000 -99 -99 000 000 000 000 -99 -99 -99 000
-99 000 -99 -99 000 000 000 000 -99 -99 -99 -99 -99 -99 000 000 -99 -99 -99 -99 000 -99 -99 -99 000 000 000 -99 -99 -99 000
-99 000 000 000 000 000 000 000 000 000 -99 -99 -99 -99 000 000 -99 -99 -99 -99 -99 000 -99 -99 000 000 000 000 -99 -99 000
-99 000 000 000 000 000 000 -99 000 000 -99 000 000 -99 000 000 -99 -99 -99 -99 000 -99 000 -99 -99 000 000 000 -99 -99 -99
000 000 000 000 000 000 000 -99 000 000 -99 000 000 000 000 000 000 -99 -99 -99 000 000 000 -99 000 000 000 000 -99 -99 -99
000 000 000 000 000 000 000 000 000 000 000 -99 000 000 000 000 000 000 -99 -99 000 000 000 000 000 000 000 000 -99 -99 -99
000 000 -99 000 000 000 000 -99 -99 000 000 -99 -99 000 -99 -99 000 000 -99 -99 000 000 000 000 000 000 -99 -99 -99 -99 -99
000 000 000 000 000 000 000 -99 -99 000 -99 -99 -99 -99 -99 -99 000 000 -99 -99 -99 000 000 000 000 000 -99 -99 -99 000 -99
000 000 000 000 000 000 -99 -99 -99 000 -99 -99 -99 -99 -99 -99 000 000 000 -99 -99 000 000 000 000 000 -99 -99 -99 000 000
000 000 000 000 000 000 000 000 -99 000 000 000 -99 -99 -99 -99 -99 000 000 -99 -99 000 -99 -99 000 000 -99 000 000 000 -99
000 000 000 000 000 000 -99 000 000 000 000 000 000 -99 -99 -99 -99 000 000 000 -99 -99 -99 -99 000 000 -99 000 000 000 000
000 000 000 000 000 -99 -99 000 000 000 000 000 000 -99 -99 000 000 000 000 000 -99 -99 -99 -99 000 000 -99 -99 000 000 000
000 000 000 000 000 -99 000 000 000 -99 000 000 000 -99 -99 000 000 000 000 000 000 -99 -99 -99 000 000 000 -99 000 000 000
000 000 000 000 000 000 000 000 -99 -99 000 000 -99 -99 -99 000 000 000 000 000 -99 -99 -99 -99 000 000 000 -99 -99 000 000
000 -99 000 000 000 000 000 000 000 -99 -99 -99 -99 000 -99 000 000 -99 000 -99 -99 -99 -99 -99 000 000 000 -99 -99 000 000
-99 -99 000 000 000 000 000 000 000 000 -99 -99 -99 000 000 000 000 000 000 -99 -99 -99 -99 -99 000 000 000 -99 000 000 000
-99 -99 000 000 000 000 000 000 000 000 000 -99 -99 000 000 000 000 000 000 -99 -99 -99 000 -99 -99 000 000 -99 000 000 000
000 000 000 -99 -99 -99 000 000 000 000 000 -99 -99 000 000 000 000 000 -99 -99 -99 -99 000 -99 -99 -99 000 -99 000 000 000
000 000 000 000 -99 -99 000 000 000 000 -99 -99 -99 -99 -99 -99 000 000 000 -99 -99 000 000 -99 -99 -99 000 -99 000 000 -99
000 000 000 000 000 000 000 000 000 000 -99 -99 -99 -99 -99 -99 000 000 000 -99 000 000 000 -99 -99 -99 -99 -99 -99 -99 -99
000 000 000 000 000 000 -99 000 000 000 000 -99 -99 -99 -99 -99 000 000 000 -99 000 000 000 -99 -99 -99 000 -99 -99 -99 -99
000 000 000 000 000 000 -99 000 000 000 000 -99 -99 -99 -99 000 000 000 000 -99 000 000 000 -99 -99 -99 -99 -99 -99 -99 -99
000 000 000 000 000 000 -99 000 000 000 000 000 -99 -99 -99 000 000 000 000 000 000 000 000 -99 -99 -99 -99 -99 -99 -99 -99
000 000 000 000 000 000 000 000 000 -99 000 000 -99 -99 -99 000 000 000 000 000 000 000 000 -99 -99 -99 -99 -99 -99 -99 -99
000 000 000 000 000 000 -99 000 000 -99 000 -99 000 000 -99 000 000 000 000 000 000 000 000 -99 -99 -99 -99 -99 -99 -99 -99
-99 000 000 000 000 000 000 -99 -99 -99 -99 -99 -99 000 000 000 000 000 -99 -99 000 -99 -99 -99 -99 -99 -99 -99 -99 -99 000
000 000 000 000 000 000 000 -99 -99 000 -99 -99 -99 -99 000 000 000 000 000 -99 000 000 -99 -99 -99 -99 -99 -99 -99 -99 000
000 000 000 000 000 000 000 000 000 000 -99 -99 -99 -99 -99 -99 000 000 000 -99 000 000 -99 -99 -99 -99 -99 -99 -99 -99 -99
000 000 000 -99 000 000 000 000 000 000 -99 -99 -99 -99 000 000 000 000 -99 -99 000 000 -99 -99 -99 -99 -99 -99 -99 -99 -99
000 000 000 -99 000 000 000 000 000 000 -99 -99 -99 000 000 000 000 000 -99 -99 000 000 -99 -99 -99 -99 -99 -99 -99 -99 -99
000 000 000 000 000 000 000 000 000 -99 -99 -99 -99 000 000 000 000 000 000 -99 -99 -99 -99 -99 000 -99 -99 -99 -99 -99 -99
000 000 000 000 000 000 000 000 -99 -99 -99 -99 -99 000 000 -99 000 000 000 -99 -99 -99 000 000 000 000 -99 -99 -99 -99 -99
000 000 000 000 000 000 000 000 -99 -99 -99 -99 -99 000 000 -99 000 000 000 -99 -99 -99 000 000 000 000 -99 -99 000 -99 000
000 000 000 000 000 000 000 000 -99 -99 -99 -99 000 000 000 000 000 000 000 -99 -99 000 000 000 000 000 000 000 000 000 000
000 001 001 000 000 000 000 000 000 -99 -99 000 000 000 000 000 000 000 -99 -99 000 -99 000 000 000 000 000 000 000 000 000
000 001 002 001 000 000 000 000 000 -99 000 000 000 000 000 000 000 000 000 -99 000 -99 -99 000 000 000 000 000 000 000 000
000 001 004 002 001 001 000 000 000 000 000 000 000 001 000 000 000 000 -99 000 000 000 -99 000 000 000 000 -99 -99 -99 -99
000 002 002 003 003 003 002 004 000 000 000 000 000 000 000 000 000 000 000 -99 000 000 -99 000 000 000 000 -99 -99 -99 -99
000 001 003 006 009 005 011 014 001 000 000 000 000 000 000 000 000 000 -99 -99 000 -99 000 000 000 000 000 -99 -99 -99 -99
000 000 004 010 006 012 010 012 003 000 000 000 000 000 000 000 000 000 -99 -99 -99 -99 -99 000 -99 000 -99 -99 -99 -99 -99
000 000 001 010 009 006 006 004 001 000 000 000 000 000 000 000 -99 -99 -99 -99 -99 -99 000 000 -99 000 -99 -99 -99 -99 -99
000 000 001 007 011 009 002 001 000 000 000 000 000 000 000 -99 -99 -99 -99 -99 -99 -99 000 -99 000 -99 -99 -99 -99 -99 -99
000 000 000 002 003 005 000 000 000 000 000 000 000 -99 -99 -99 -99 -99 -99 000 -99 -99 -99 -99 000 -99 -99 -99 -99 -99 -99
000 000 000 000 000 000 000 000 -99 000 000 -99 000 -99 000 000 -99 -99 000 000 000 -99 -99 -99 000 000 -99 -99 -99 -99 -99
000 -99 -99 000 000 000 -99 -99 -99 -99 -99 -99 000 -99 000 -99 -99 -99 000 000 -99 000 -99 000 000 -99 -99 -99 -99 -99 -99
-99 -99 -99 -99 -99 -99 -99 -99 -99 -99 -99 000 -99 000 000 -99 -99 000 000 000 000 -99 -99 000 000 000 000 000 -99 -99 000
-99 -99 -99 -99 -99 -99 -99 -99 -99 -99 -99 -99 -99 -99 -99 -99 -99 000 000 000 -99 -99 -99 000 000 000 000 -99 -99 -99 -99
-99 -99 -99 -99 -99 -99 -99 -99 -99 -99 -99 -99 -99 -99 -99 -99 -99 000 000 -99 -99 -99 -99 000 000 000 000 -99 -99 -99 -99
-99 -99 -99 -99 -99 -99 -99 -99 -99 -99 -99 -99 -99 -99 -99 -99 -99 000 -99 -99 -99 -99 -99 000 000 000 000 000 -99 -99 -99
-99 -99 -99 -99 -99 -99 -99 -99 -99 -99 -99 -99 -99 -99 -99 -99 -99 000 -99 -99 -99 -99 -99 000 000 000 000 000 -99 -99 -99
-99 -99 -99 -99 -99 -99 -99 -99 -99 -99 -99 -99 000 -99 -99 -99 -99 -99 -99 -99 -99 -99 -99 000 000 000 -99 -99 -99 -99 -99
-99 -99 -99 -99 -99 -99 -99 -99 -99 -99 -99 -99 000 000 000 -99 -99 -99 -99 -99 -99 -99 -99 -99 -99 -99 -99 -99 -99 -99 -99
-99 -99 -99 -99 -99 -99 -99 -99 -99 000 000 000 001 000 000 -99 -99 -99 -99 -99 -99 -99 -99 -99 -99 -99 -99 -99 -99 -99 -99
-99 -99 -99 -99 -99 -99 -99 -99 000 000 000 003 003 002 000 000 000 -99 -99 -99 -99 -99 -99 -99 -99 -99 -99 -99 -99 -99 -99
-99 -99 -99 -99 -99 -99 -99 000 000 001 002 007 008 002 000 000 000 000 -99 -99 -99 000 000 -99 -99 -99 -99 -99 -99 -99 -99
